
(set-logic ALL) 

(declare-datatype MyList ((Nil) (Cons (head Real) (tail MyList)) )) 
(declare-fun l0 () MyList) 
(declare-fun l1 () MyList) 
(declare-fun l2 () MyList) 
(declare-fun l3 () MyList) 
(declare-fun i0 () Real) 
(declare-fun i1 () Real) 
(assert (= l2 Nil) )
(assert (is-Cons Nil) )
(assert (or (= l1 Nil) (= l3 l2) (is-Nil Nil) (is-Nil Nil)) )
(assert (is-Cons Nil) )
(assert (or (is-Nil Nil) (= l3 Nil) (= l0 Nil) (is-Nil Nil)) )
(assert (and (is-Nil Nil) (= l1 Nil)) )
(assert (not (= l2 Nil)) )
(assert (= l3 Nil) )
(check-sat)
